p cnf 100 1
100 0
w 1 0.0104091
w 2 1 0
w 2 -1 1
w 3 2 1
w 3 -2 0
w 4 3 1
w 4 -3 0
w 5 4 0.694419
w 5 -4 0.409045
w 6 5 1
w 6 -5 0
w 7 6 0
w 7 -6 1
w 8 7 1
w 8 -7 0
w 9 8 0
w 9 -8 1
w 10 9 0.0959506
w 10 -9 0.210057
w 11 1 0.637162
w 11 -1 0.351685
w 12 11 2 0.393106
w 12 11 -2 0.196772
w 12 -11 2 0.314856
w 12 -11 -2 0.293129
w 13 12 3 0
w 13 12 -3 1
w 13 -12 3 0
w 13 -12 -3 0
w 14 13 4 1
w 14 13 -4 0
w 14 -13 4 1
w 14 -13 -4 1
w 15 14 5 0
w 15 14 -5 1
w 15 -14 5 1
w 15 -14 -5 0
w 16 15 6 1
w 16 15 -6 1
w 16 -15 6 1
w 16 -15 -6 0
w 17 16 7 0.14997
w 17 16 -7 0.280794
w 17 -16 7 0.712675
w 17 -16 -7 0.787132
w 18 17 8 0
w 18 17 -8 1
w 18 -17 8 0
w 18 -17 -8 0
w 19 18 9 0
w 19 18 -9 1
w 19 -18 9 0
w 19 -18 -9 0
w 20 19 10 1
w 20 19 -10 1
w 20 -19 10 0
w 20 -19 -10 0
w 21 11 0
w 21 -11 1
w 22 21 12 0.82234
w 22 21 -12 0.800764
w 22 -21 12 0.906788
w 22 -21 -12 0.1686
w 23 22 13 0.960807
w 23 22 -13 0.239337
w 23 -22 13 0.911831
w 23 -22 -13 0.110776
w 24 23 14 1
w 24 23 -14 0
w 24 -23 14 1
w 24 -23 -14 1
w 25 24 15 1
w 25 24 -15 1
w 25 -24 15 0
w 25 -24 -15 0
w 26 25 16 1
w 26 25 -16 0
w 26 -25 16 1
w 26 -25 -16 0
w 27 26 17 0
w 27 26 -17 0
w 27 -26 17 0
w 27 -26 -17 1
w 28 27 18 0.813643
w 28 27 -18 0.815341
w 28 -27 18 0.753819
w 28 -27 -18 0.720431
w 29 28 19 0.712912
w 29 28 -19 0.681238
w 29 -28 19 0.223278
w 29 -28 -19 0.624744
w 30 29 20 0.743408
w 30 29 -20 0.24925
w 30 -29 20 0.689922
w 30 -29 -20 0.896016
w 31 21 0
w 31 -21 1
w 32 31 22 0.818503
w 32 31 -22 0.31958
w 32 -31 22 0.698534
w 32 -31 -22 0.254822
w 33 32 23 1
w 33 32 -23 1
w 33 -32 23 1
w 33 -32 -23 0
w 34 33 24 1
w 34 33 -24 1
w 34 -33 24 0
w 34 -33 -24 1
w 35 34 25 0
w 35 34 -25 1
w 35 -34 25 0
w 35 -34 -25 0
w 36 35 26 1
w 36 35 -26 0
w 36 -35 26 0
w 36 -35 -26 0
w 37 36 27 1
w 37 36 -27 1
w 37 -36 27 1
w 37 -36 -27 0
w 38 37 28 0
w 38 37 -28 1
w 38 -37 28 1
w 38 -37 -28 1
w 39 38 29 0
w 39 38 -29 0
w 39 -38 29 1
w 39 -38 -29 0
w 40 39 30 0
w 40 39 -30 1
w 40 -39 30 1
w 40 -39 -30 1
w 41 31 0.854705
w 41 -31 0.683397
w 42 41 32 1
w 42 41 -32 0
w 42 -41 32 1
w 42 -41 -32 0
w 43 42 33 0
w 43 42 -33 1
w 43 -42 33 1
w 43 -42 -33 1
w 44 43 34 1
w 44 43 -34 0
w 44 -43 34 1
w 44 -43 -34 1
w 45 44 35 0
w 45 44 -35 0
w 45 -44 35 1
w 45 -44 -35 1
w 46 45 36 0
w 46 45 -36 1
w 46 -45 36 1
w 46 -45 -36 1
w 47 46 37 0
w 47 46 -37 0
w 47 -46 37 1
w 47 -46 -37 1
w 48 47 38 0.57127
w 48 47 -38 0.339475
w 48 -47 38 0.045816
w 48 -47 -38 0.911238
w 49 48 39 1
w 49 48 -39 0
w 49 -48 39 0
w 49 -48 -39 1
w 50 49 40 0
w 50 49 -40 0
w 50 -49 40 1
w 50 -49 -40 1
w 51 41 0.51137
w 51 -41 0.415457
w 52 51 42 1
w 52 51 -42 1
w 52 -51 42 1
w 52 -51 -42 0
w 53 52 43 0
w 53 52 -43 1
w 53 -52 43 1
w 53 -52 -43 1
w 54 53 44 0
w 54 53 -44 0
w 54 -53 44 1
w 54 -53 -44 1
w 55 54 45 0.662047
w 55 54 -45 0.4987
w 55 -54 45 0.35895
w 55 -54 -45 0.978915
w 56 55 46 0
w 56 55 -46 1
w 56 -55 46 0
w 56 -55 -46 0
w 57 56 47 1
w 57 56 -47 0
w 57 -56 47 0
w 57 -56 -47 0
w 58 57 48 1
w 58 57 -48 1
w 58 -57 48 1
w 58 -57 -48 0
w 59 58 49 0.130165
w 59 58 -49 0.411139
w 59 -58 49 0.257302
w 59 -58 -49 0.836643
w 60 59 50 1
w 60 59 -50 1
w 60 -59 50 0
w 60 -59 -50 1
w 61 51 1
w 61 -51 0
w 62 61 52 1
w 62 61 -52 0
w 62 -61 52 1
w 62 -61 -52 1
w 63 62 53 0
w 63 62 -53 1
w 63 -62 53 1
w 63 -62 -53 1
w 64 63 54 1
w 64 63 -54 1
w 64 -63 54 0
w 64 -63 -54 1
w 65 64 55 0.652437
w 65 64 -55 0.911078
w 65 -64 55 0.824152
w 65 -64 -55 0.782602
w 66 65 56 0
w 66 65 -56 0
w 66 -65 56 1
w 66 -65 -56 0
w 67 66 57 1
w 67 66 -57 1
w 67 -66 57 0
w 67 -66 -57 0
w 68 67 58 0.699599
w 68 67 -58 0.966108
w 68 -67 58 0.867943
w 68 -67 -58 0.898035
w 69 68 59 0.078454
w 69 68 -59 0.729301
w 69 -68 59 0.153605
w 69 -68 -59 0.825181
w 70 69 60 1
w 70 69 -60 1
w 70 -69 60 1
w 70 -69 -60 0
w 71 61 1
w 71 -61 0
w 72 71 62 1
w 72 71 -62 1
w 72 -71 62 1
w 72 -71 -62 0
w 73 72 63 0
w 73 72 -63 0
w 73 -72 63 1
w 73 -72 -63 0
w 74 73 64 0
w 74 73 -64 0
w 74 -73 64 1
w 74 -73 -64 0
w 75 74 65 0.831626
w 75 74 -65 0.185655
w 75 -74 65 0.684571
w 75 -74 -65 0.616548
w 76 75 66 0
w 76 75 -66 0
w 76 -75 66 1
w 76 -75 -66 1
w 77 76 67 0
w 77 76 -67 0
w 77 -76 67 1
w 77 -76 -67 1
w 78 77 68 0
w 78 77 -68 1
w 78 -77 68 1
w 78 -77 -68 1
w 79 78 69 0
w 79 78 -69 1
w 79 -78 69 1
w 79 -78 -69 0
w 80 79 70 0
w 80 79 -70 0
w 80 -79 70 0
w 80 -79 -70 1
w 81 71 1
w 81 -71 0
w 82 81 72 1
w 82 81 -72 0
w 82 -81 72 1
w 82 -81 -72 0
w 83 82 73 1
w 83 82 -73 1
w 83 -82 73 1
w 83 -82 -73 0
w 84 83 74 1
w 84 83 -74 0
w 84 -83 74 0
w 84 -83 -74 0
w 85 84 75 1
w 85 84 -75 1
w 85 -84 75 0
w 85 -84 -75 1
w 86 85 76 1
w 86 85 -76 1
w 86 -85 76 0
w 86 -85 -76 1
w 87 86 77 0.251386
w 87 86 -77 0.10542
w 87 -86 77 0.301029
w 87 -86 -77 0.818745
w 88 87 78 0
w 88 87 -78 1
w 88 -87 78 0
w 88 -87 -78 1
w 89 88 79 0.193898
w 89 88 -79 0.290374
w 89 -88 79 0.584547
w 89 -88 -79 0.746405
w 90 89 80 1
w 90 89 -80 0
w 90 -89 80 0
w 90 -89 -80 0
w 91 81 0
w 91 -81 1
w 92 91 82 1
w 92 91 -82 1
w 92 -91 82 0
w 92 -91 -82 0
w 93 92 83 1
w 93 92 -83 0
w 93 -92 83 1
w 93 -92 -83 0
w 94 93 84 0
w 94 93 -84 0
w 94 -93 84 1
w 94 -93 -84 0
w 95 94 85 1
w 95 94 -85 1
w 95 -94 85 1
w 95 -94 -85 0
w 96 95 86 0
w 96 95 -86 1
w 96 -95 86 0
w 96 -95 -86 0
w 97 96 87 1
w 97 96 -87 1
w 97 -96 87 0
w 97 -96 -87 1
w 98 97 88 0.825818
w 98 97 -88 0.0950187
w 98 -97 88 0.636544
w 98 -97 -88 0.0109492
w 99 98 89 1
w 99 98 -89 0
w 99 -98 89 1
w 99 -98 -89 1
w 100 99 90 1
w 100 99 -90 0
w 100 -99 90 1
w 100 -99 -90 0